DIMACS2
20 25 297 311 105 222 285 196 30 228 65 6 272 22 175 50 104 296 34 152 280
p edge 320 662
e 0 64 4.0
e 1 23 3.0
e 1 221 3.0
e 2 149 1.0
e 2 0 4.0
e 2 126 2.0
e 2 98 1.0
e 3 50 7.0
e 4 53 1.0
e 5 238 1.0
e 5 211 2.0
e 6 130 9.0
e 6 2 24.0
e 6 255 37.0
e 6 85 32.0
e 6 312 15.0
e 6 143 34.0
e 6 253 5.0
e 6 215 14.0
e 6 56 10.0
e 6 259 29.0
e 6 210 49.0
e 6 260 12.0
e 6 83 44.0
e 6 50 39.0
e 6 44 37.0
e 7 180 1.0
e 8 135 1.0
e 9 303 1.0
e 10 316 1.0
e 11 268 3.0
e 12 0 1.0
e 13 115 4.0
e 13 110 4.0
e 13 150 1.0
e 13 317 8.0
e 14 229 3.0
e 15 30 43.0
e 15 171 8.0
e 15 144 1.0
e 16 58 2.0
e 16 230 1.0
e 17 285 44.0
e 17 223 3.0
e 17 13 6.0
e 17 208 2.0
e 18 104 29.0
e 18 75 1.0
e 18 127 3.0
e 19 178 1.0
e 20 179 1.0
e 21 207 1.0
e 22 151 28.0
e 22 273 35.0
e 22 2 6.0
e 22 238 16.0
e 22 215 21.0
e 22 16 2.0
e 22 193 48.0
e 22 272 34.0
e 22 265 46.0
e 22 253 16.0
e 22 275 1.0
e 22 135 33.0
e 22 306 49.0
e 22 75 33.0
e 22 256 37.0
e 22 216 43.0
e 22 295 31.0
e 23 298 6.0
e 23 111 1.0
e 24 178 1.0
e 25 13 49.0
e 25 86 46.0
e 25 186 41.0
e 25 93 35.0
e 25 73 2.0
e 25 241 23.0
e 25 75 25.0
e 25 65 1.0
e 25 232 14.0
e 25 209 46.0
e 25 234 9.0
e 25 111 5.0
e 25 112 35.0
e 25 52 23.0
e 25 291 2.0
e 25 293 3.0
e 25 299 6.0
e 26 76 3.0
e 26 116 3.0
e 27 290 1.0
e 28 104 22.0
e 28 267 5.0
e 28 261 3.0
e 29 130 1.0
e 30 250 38.0
e 30 295 15.0
e 30 282 25.0
e 30 122 15.0
e 30 157 41.0
e 30 116 21.0
e 30 268 23.0
e 30 168 1.0
e 30 241 43.0
e 30 60 26.0
e 30 231 29.0
e 30 108 6.0
e 30 201 9.0
e 30 208 4.0
e 30 258 15.0
e 30 243 20.0
e 31 79 1.0
e 32 266 2.0
e 33 106 1.0
e 34 147 38.0
e 34 16 4.0
e 34 287 2.0
e 34 236 41.0
e 34 169 45.0
e 34 80 32.0
e 34 183 16.0
e 34 195 21.0
e 34 31 7.0
e 34 81 9.0
e 34 112 18.0
e 34 193 45.0
e 34 144 26.0
e 34 56 32.0
e 34 85 39.0
e 34 262 9.0
e 35 6 29.0
e 36 32 1.0
e 37 15 1.0
e 37 305 1.0
e 38 197 2.0
e 39 230 1.0
e 40 134 1.0
e 41 114 1.0
e 42 315 1.0
e 43 307 2.0
e 44 194 1.0
e 45 76 1.0
e 46 209 1.0
e 46 93 1.0
e 47 120 1.0
e 48 59 2.0
e 49 39 1.0
e 50 105 4.0
e 50 318 48.0
e 50 303 11.0
e 50 314 36.0
e 50 15 45.0
e 50 248 11.0
e 50 184 32.0
e 50 28 28.0
e 50 249 9.0
e 50 126 29.0
e 50 77 27.0
e 50 233 13.0
e 50 240 5.0
e 51 189 1.0
e 52 142 1.0
e 53 185 1.0
e 54 90 1.0
e 55 173 3.0
e 55 239 1.0
e 56 297 13.0
e 56 291 2.0
e 56 305 6.0
e 57 112 1.0
e 58 44 1.0
e 59 89 2.0
e 60 121 3.0
e 61 256 1.0
e 62 262 1.0
e 63 229 1.0
e 64 218 1.0
e 65 144 21.0
e 65 77 8.0
e 65 217 33.0
e 65 5 23.0
e 65 81 5.0
e 65 85 31.0
e 65 114 24.0
e 65 302 42.0
e 65 60 42.0
e 65 201 40.0
e 65 223 37.0
e 65 92 15.0
e 65 71 29.0
e 65 280 32.0
e 65 307 20.0
e 66 151 1.0
e 67 116 2.0
e 68 97 1.0
e 69 196 37.0
e 70 207 1.0
e 71 197 1.0
e 72 41 1.0
e 73 216 1.0
e 74 228 10.0
e 74 284 4.0
e 74 112 11.0
e 74 270 6.0
e 74 145 4.0
e 75 57 1.0
e 76 126 1.0
e 77 198 1.0
e 78 229 3.0
e 78 47 1.0
e 79 163 2.0
e 80 164 1.0
e 81 292 1.0
e 82 141 2.0
e 83 282 1.0
e 83 317 1.0
e 84 89 1.0
e 85 147 2.0
e 86 308 2.0
e 87 292 1.0
e 88 80 2.0
e 89 62 1.0
e 90 124 1.0
e 91 273 1.0
e 92 20 1.0
e 93 119 1.0
e 94 61 4.0
e 94 132 3.0
e 95 147 2.0
e 95 92 1.0
e 96 301 1.0
e 97 76 1.0
e 98 190 2.0
e 98 310 2.0
e 99 67 2.0
e 100 293 1.0
e 101 48 1.0
e 102 294 3.0
e 103 278 1.0
e 104 255 10.0
e 104 17 5.0
e 104 19 23.0
e 104 278 44.0
e 104 87 30.0
e 104 36 23.0
e 104 249 14.0
e 104 187 2.0
e 104 65 31.0
e 104 37 34.0
e 104 3 23.0
e 104 41 32.0
e 104 269 24.0
e 104 102 33.0
e 104 251 16.0
e 105 75 8.0
e 105 256 9.0
e 105 101 36.0
e 105 172 26.0
e 105 17 12.0
e 105 90 7.0
e 105 45 11.0
e 105 245 16.0
e 105 38 26.0
e 105 199 21.0
e 105 257 10.0
e 105 2 48.0
e 105 244 2.0
e 105 0 23.0
e 105 233 8.0
e 105 299 38.0
e 106 151 1.0
e 107 69 1.0
e 107 46 2.0
e 108 247 1.0
e 109 310 1.0
e 110 214 1.0
e 111 59 2.0
e 112 70 2.0
e 113 69 4.0
e 114 62 2.0
e 115 138 2.0
e 116 17 9.0
e 117 19 1.0
e 118 283 1.0
e 119 273 1.0
e 120 194 1.0
e 121 44 3.0
e 122 292 1.0
e 123 8 1.0
e 124 198 1.0
e 125 179 1.0
e 126 292 1.0
e 127 59 2.0
e 128 143 1.0
e 129 115 1.0
e 130 205 2.0
e 131 296 34.0
e 131 42 2.0
e 131 132 2.0
e 132 180 1.0
e 133 297 8.0
e 133 227 4.0
e 134 242 2.0
e 135 147 1.0
e 136 233 1.0
e 137 227 2.0
e 138 63 2.0
e 139 29 1.0
e 140 306 1.0
e 140 314 2.0
e 141 147 3.0
e 142 229 3.0
e 143 162 2.0
e 144 57 1.0
e 145 141 2.0
e 146 120 1.0
e 147 117 1.0
e 148 282 1.0
e 149 21 1.0
e 150 193 1.0
e 151 50 3.0
e 152 23 20.0
e 152 24 48.0
e 152 304 17.0
e 152 110 25.0
e 152 294 12.0
e 152 265 9.0
e 152 229 29.0
e 152 49 20.0
e 152 4 14.0
e 152 317 21.0
e 152 256 18.0
e 152 264 49.0
e 152 25 42.0
e 152 277 48.0
e 152 90 41.0
e 153 189 3.0
e 154 91 2.0
e 155 164 3.0
e 156 183 2.0
e 157 4 1.0
e 158 298 1.0
e 159 108 1.0
e 160 156 2.0
e 161 29 1.0
e 162 32 1.0
e 163 66 1.0
e 164 308 2.0
e 165 315 1.0
e 166 182 1.0
e 167 15 3.0
e 168 54 2.0
e 169 159 2.0
e 170 244 1.0
e 171 34 2.0
e 171 152 39.0
e 171 14 1.0
e 172 152 30.0
e 172 28 10.0
e 172 306 5.0
e 172 98 9.0
e 173 285 2.0
e 173 143 1.0
e 174 14 5.0
e 175 94 43.0
e 175 195 42.0
e 175 210 4.0
e 175 8 12.0
e 175 227 49.0
e 175 275 46.0
e 175 120 35.0
e 175 226 49.0
e 175 300 46.0
e 175 85 39.0
e 175 51 28.0
e 175 104 10.0
e 175 139 16.0
e 175 58 19.0
e 175 197 20.0
e 175 30 19.0
e 175 144 34.0
e 176 152 46.0
e 177 50 43.0
e 177 196 39.0
e 179 288 1.0
e 180 284 1.0
e 181 156 2.0
e 182 89 1.0
e 183 71 1.0
e 184 9 1.0
e 185 39 1.0
e 186 155 1.0
e 187 274 1.0
e 188 153 1.0
e 189 216 1.0
e 190 23 7.0
e 191 48 1.0
e 192 156 2.0
e 193 171 9.0
e 194 81 1.0
e 195 220 1.0
e 196 276 43.0
e 196 185 6.0
e 196 302 22.0
e 196 78 49.0
e 196 154 19.0
e 196 234 30.0
e 196 316 7.0
e 196 152 4.0
e 196 263 30.0
e 196 264 5.0
e 196 265 43.0
e 196 82 40.0
e 196 99 17.0
e 196 148 18.0
e 197 88 2.0
e 198 191 1.0
e 199 146 2.0
e 200 49 1.0
e 200 245 1.0
e 201 100 1.0
e 202 244 1.0
e 203 279 1.0
e 204 85 4.0
e 205 213 1.0
e 206 275 1.0
e 207 279 1.0
e 208 272 16.0
e 209 110 1.0
e 210 185 1.0
e 211 126 1.0
e 212 182 1.0
e 213 189 1.0
e 214 170 1.0
e 215 247 1.0
e 216 153 3.0
e 217 178 1.0
e 218 180 1.0
e 219 269 2.0
e 219 174 1.0
e 220 193 1.0
e 221 213 4.0
e 221 114 3.0
e 222 208 6.0
e 222 174 22.0
e 222 150 8.0
e 222 274 8.0
e 222 66 28.0
e 222 71 34.0
e 222 125 20.0
e 222 42 45.0
e 222 77 48.0
e 222 16 31.0
e 222 302 34.0
e 222 2 5.0
e 222 281 26.0
e 222 191 46.0
e 222 257 43.0
e 222 227 26.0
e 223 296 11.0
e 223 291 1.0
e 223 265 10.0
e 224 79 1.0
e 225 38 1.0
e 225 37 2.0
e 226 0 4.0
e 227 303 2.0
e 228 274 1.0
e 228 7 29.0
e 228 191 13.0
e 228 130 14.0
e 228 318 17.0
e 228 62 11.0
e 228 226 33.0
e 228 39 24.0
e 228 231 10.0
e 228 133 6.0
e 228 105 38.0
e 228 218 6.0
e 228 170 45.0
e 228 319 29.0
e 228 83 19.0
e 228 254 35.0
e 229 311 13.0
e 230 76 1.0
e 231 136 1.0
e 232 7 1.0
e 233 189 1.0
e 234 180 1.0
e 235 230 1.0
e 236 113 1.0
e 237 133 2.0
e 238 244 1.0
e 239 190 1.0
e 240 199 2.0
e 241 138 1.0
e 242 272 9.0
e 243 187 1.0
e 244 222 48.0
e 245 293 1.0
e 246 65 11.0
e 246 251 1.0
e 247 314 1.0
e 248 11 1.0
e 249 205 1.0
e 250 180 2.0
e 251 264 1.0
e 252 214 1.0
e 253 64 1.0
e 254 137 1.0
e 255 123 11.0
e 255 122 11.0
e 255 54 7.0
e 256 3 2.0
e 257 29 2.0
e 258 176 2.0
e 258 33 2.0
e 259 253 3.0
e 260 132 1.0
e 261 186 1.0
e 262 10 1.0
e 263 295 1.0
e 264 9 1.0
e 265 285 42.0
e 266 242 1.0
e 267 151 1.0
e 268 196 21.0
e 269 89 1.0
e 270 48 1.0
e 271 29 2.0
e 272 263 4.0
e 272 83 3.0
e 272 30 29.0
e 272 15 25.0
e 272 173 17.0
e 272 108 26.0
e 272 318 47.0
e 272 304 29.0
e 272 50 44.0
e 272 7 9.0
e 272 309 47.0
e 272 228 5.0
e 272 124 2.0
e 272 305 42.0
e 273 151 1.0
e 274 102 1.0
e 275 138 1.0
e 276 252 1.0
e 277 6 42.0
e 278 301 1.0
e 279 195 1.0
e 280 294 38.0
e 280 113 28.0
e 280 117 49.0
e 280 17 32.0
e 280 94 1.0
e 280 149 41.0
e 280 35 39.0
e 280 92 39.0
e 280 237 33.0
e 280 95 31.0
e 280 207 10.0
e 280 59 31.0
e 280 238 6.0
e 280 115 19.0
e 280 192 21.0
e 280 167 44.0
e 281 47 1.0
e 282 296 4.0
e 283 20 1.0
e 284 129 1.0
e 285 58 46.0
e 285 222 12.0
e 285 294 2.0
e 285 209 36.0
e 285 309 15.0
e 285 50 35.0
e 285 111 13.0
e 285 288 23.0
e 285 141 3.0
e 285 165 5.0
e 285 192 8.0
e 285 109 4.0
e 285 183 26.0
e 285 267 25.0
e 286 33 1.0
e 287 121 2.0
e 288 0 4.0
e 289 14 1.0
e 290 1 1.0
e 291 190 1.0
e 292 158 1.0
e 293 61 1.0
e 294 138 3.0
e 295 299 2.0
e 296 57 28.0
e 296 181 28.0
e 296 257 4.0
e 296 153 45.0
e 296 113 28.0
e 296 129 27.0
e 296 318 26.0
e 296 67 37.0
e 296 58 28.0
e 296 250 14.0
e 296 93 35.0
e 296 295 7.0
e 296 79 43.0
e 296 231 19.0
e 297 26 25.0
e 297 205 6.0
e 297 187 23.0
e 297 218 20.0
e 297 198 12.0
e 297 8 26.0
e 297 203 18.0
e 297 228 47.0
e 297 18 16.0
e 297 245 21.0
e 297 280 23.0
e 297 118 46.0
e 297 107 25.0
e 297 184 39.0
e 297 307 48.0
e 298 303 1.0
e 299 302 2.0
e 300 61 1.0
e 301 128 2.0
e 302 298 1.0
e 303 262 1.0
e 304 129 1.0
e 305 307 3.0
e 306 43 1.0
e 307 311 40.0
e 308 132 1.0
e 309 214 1.0
e 310 214 1.0
e 311 121 12.0
e 311 94 43.0
e 311 19 9.0
e 311 245 22.0
e 311 33 12.0
e 311 304 23.0
e 311 23 14.0
e 311 228 5.0
e 311 173 8.0
e 311 13 8.0
e 311 210 6.0
e 311 313 49.0
e 311 267 10.0
e 311 123 27.0
e 311 154 6.0
e 312 11 4.0
e 312 91 1.0
e 313 43 1.0
e 314 163 2.0
e 315 313 1.0
e 316 301 1.0
e 317 201 1.0
e 318 35 1.0
e 319 279 1.0
